 # Li1 Mn1.5 Ni0.5 O4
  
          56  atoms
          5  atom types
 
      0.000000000000       8.206762313800  xlo xhi
      0.000000000000       8.206762313800  ylo yhi
      0.000000000000       8.206762313800  zlo zhi
 
Masses

           1  6.9400000              # Li
           2  58.6900000              # Ni
           3  54.9400000              # Mn
           4  16.0000000              # O1
           5  16.0000000              # O2

Atoms # charge
 
  1  1  1.000000  0.026103757711  0.026103757711  0.026103757711
  2  1  1.000000  4.077277185813  8.180658342713  4.129484651994
  3  1  1.000000  8.180658342713  4.129484651994  4.077277185813
  4  1  1.000000  4.129484651994  4.077277185813  8.180658342713
  5  1  1.000000  2.077794311540  6.181175230444  6.128968240256
  6  1  1.000000  2.025586845360  2.025586845360  2.025586845360
  7  1  1.000000  6.181175230444  6.128968240256  2.077794311540
  8  1  1.000000  6.128968240256  2.077794311540  6.181175230444
  9  2  2.000000  5.129225732137  5.129225732137  5.129225732137
  10  2  2.000000  7.180917738563  3.077536343667  1.025845289225
  11  2  2.000000  3.077536343667  1.025845289225  7.180917738563
  12  2  2.000000  1.025845289225  7.180917738563  3.077536343667
  13  3  4.000000  1.025845166124  3.104122396386  7.154329773669
  14  3  4.000000  3.077535867675  5.102639671211  3.050949092761
  15  3  4.000000  7.180916786579  7.207503799489  5.155813697031
  16  3  4.000000  5.129226684121  0.999258637413  1.052432655025
  17  3  4.000000  7.154329773669  1.025845166124  3.104122396386
  18  3  4.000000  3.050949092761  3.077535867675  5.102639671211
  19  3  4.000000  5.155813697031  7.180916786579  7.207503799489
  20  3  4.000000  1.052432655025  5.129226684121  0.999258637413
  21  3  4.000000  3.104122396386  7.154329773669  1.025845166124
  22  3  4.000000  5.102639671211  3.050949092761  3.077535867675
  23  3  4.000000  7.207503799489  5.155813697031  7.180916786579
  24  3  4.000000  0.999258637413  1.052432655025  5.129226684121
  25  4  -2.00000  3.157285449764  3.157285449764  3.157285449764
  26  4  -2.00000  0.946095641482  5.049476626040  7.260666844660
  27  4  -2.00000  5.049476626040  7.260666844660  0.946095641482
  28  4  -2.00000  7.260666844660  0.946095641482  5.049476626040
  29  4  -2.00000  5.208976266210  1.105595232411  2.997786285586
  30  4  -2.00000  7.101167204490  7.101167204490  7.101167204490
  31  4  -2.00000  1.105595232411  2.997786285586  5.208976266210
  32  4  -2.00000  2.997786285586  5.208976266210  1.105595232411
  33  5  -2.00000  1.218539592361  7.041817187899  1.049322013079
  34  5  -2.00000  2.884841679434  1.164945125901  5.152703284873
  35  5  -2.00000  6.988222598338  2.938436030999  3.054059028927
  36  5  -2.00000  5.321920872362  5.268326282801  7.157440185827
  37  5  -2.00000  1.049322013079  1.218539592361  7.041817187899
  38  5  -2.00000  5.152703284873  2.884841679434  1.164945125901
  39  5  -2.00000  3.054059028927  6.988222598338  2.938436030999
  40  5  -2.00000  7.157440185827  5.321920872362  5.268326282801
  41  5  -2.00000  7.041817187899  1.049322013079  1.218539592361
  42  5  -2.00000  1.164945125901  5.152703284873  2.884841679434
  43  5  -2.00000  2.938436030999  3.054059028927  6.988222598338
  44  5  -2.00000  5.268326282801  7.157440185827  5.321920872362
  45  5  -2.00000  0.886745452549  7.373611450812  5.105749607377
  46  5  -2.00000  3.216635704351  0.833151043537  1.002368565371
  47  5  -2.00000  4.990126609449  4.936532019888  3.101012706423
  48  5  -2.00000  7.320016861251  3.270230055916  7.204393863323
  49  5  -2.00000  3.270230055916  7.204393863323  7.320016861251
  50  5  -2.00000  4.936532019888  3.101012706423  4.990126609449
  51  5  -2.00000  0.833151043537  1.002368565371  3.216635704351
  52  5  -2.00000  7.373611450812  5.105749607377  0.886745452549
  53  5  -2.00000  3.101012706423  4.990126609449  4.936532019888
  54  5  -2.00000  7.204393863323  7.320016861251  3.270230055916
  55  5  -2.00000  5.105749607377  0.886745452549  7.373611450812
  56  5  -2.00000  1.002368565371  3.216635704351  0.833151043537
