 # Li              Ni              Mn

          56  atoms
          5  atom types

      0.000000000000       8.206762313800  xlo xhi
      0.000000000000       8.206762313800  ylo yhi
      0.000000000000       8.206762313800  zlo zhi

Masses

           1  6.9400000              # Li
           2  58.6900000              # Ni
           3  54.9400000              # Mn
           4  16.0000000              # O1
           5  16.0000000              # O2

Atoms # charge
 
  1  1  1.000000  4.509947723847  3.814284058360  3.791731582151
  2  1  1.000000  8.204084638600  4.080242641352  0.054036071477
  3  1  1.000000  4.092410297222  0.017995585513  8.221463774050
  4  1  1.000000  0.357361687936  7.869649155379  3.789638760234
  5  1  1.000000  6.556650796912  1.706323692754  2.318950203817
  6  1  1.000000  6.149825411578  6.133372407551  6.124685592019
  7  1  1.000000  2.092885490081  2.022931690249  6.182017744475
  8  1  1.000000  2.423990914675  5.862159912522  2.419310405636
  9  2  2.000000  1.052528866787  1.017942199132  1.005184812599
  10  2  2.000000  3.106683206702  7.192614451060  5.170857680929
  11  2  2.000000  7.211520291800  5.137451184509  3.081222281668
  12  2  2.000000  5.151719944795  3.075786002186  7.214279877125
  13  3  4.000000  5.156971213827  7.226019717270  3.059835547432
  14  3  4.000000  7.215189072129  0.988434421357  7.160108563666
  15  3  4.000000  3.100572045908  3.095747835935  1.033777132538
  16  3  4.000000  1.040278366550  5.095407277323  5.202151772440
  17  3  4.000000  3.063564450833  5.136118614974  7.216445251449
  18  3  4.000000  7.187634907163  7.181697288734  0.972603597687
  19  3  4.000000  1.068118560522  3.078630343164  3.121852228344
  20  3  4.000000  5.186424976637  1.006307718536  5.140109700575
  21  3  4.000000  7.253259674085  3.041063115088  5.171004728401
  22  3  4.000000  1.010360986306  7.166905878560  7.214365845579
  23  3  4.000000  3.124986882020  1.051087618754  3.083951323835
  24  3  4.000000  5.130474273235  5.160019031754  1.001024879387
  25  4  -2.000000  7.290090106104  7.269834805166  7.267976150823
  26  4  -2.000000  5.070035547005  0.937677826353  3.185373793187
  27  4  -2.000000  0.960403803790  3.152052473385  5.075242956929
  28  4  -2.000000  3.189097419680  5.037430551824  0.934544687338
  29  4  -2.000000  1.114690712062  5.213815399396  7.136338958214
  30  4  -2.000000  3.013568380452  2.992717877727  2.988924943508
  31  4  -2.000000  5.229296500371  7.117720119413  1.106667268289
  32  4  -2.000000  7.129659887329  1.095919138320  5.228639046375
  33  5  -2.000000  5.368446487423  2.915131880080  5.187416213286
  34  5  -2.000000  7.013340429512  5.276267370410  1.046801577667
  35  5  -2.000000  2.896657404804  7.052628611039  7.187186174844
  36  5  -2.000000  1.240967179592  1.162796145201  3.043299841207
  37  5  -2.000000  5.170029455788  5.344334129915  2.922218328153
  38  5  -2.000000  1.079162282092  6.977711510037  5.294288717748
  39  5  -2.000000  7.187502459047  2.878245690463  7.071982641762
  40  5  -2.000000  3.068194945955  1.211289153302  1.166461080015
  41  5  -2.000000  2.943336692967  5.164735139591  5.347394858834
  42  5  -2.000000  5.294863998165  1.041052638045  7.017292943822
  43  5  -2.000000  7.064696568703  7.182249068633  2.868624386556
  44  5  -2.000000  1.174002797864  3.054046319341  1.232947487968
  45  5  -2.000000  5.004234753543  3.278833685239  1.011204887881
  46  5  -2.000000  7.349847464360  4.933051546316  5.125210477030
  47  5  -2.000000  0.896469875755  0.823281786503  7.215072426124
  48  5  -2.000000  3.243007786080  7.396820052354  3.137493106257
  49  5  -2.000000  7.418101208444  3.103619936497  3.251119800930
  50  5  -2.000000  0.834072328918  7.221392323523  0.880135499482
  51  5  -2.000000  4.955501385534  5.110368391150  7.330853291720
  52  5  -2.000000  3.290496105978  0.997521709776  5.000943179921
  53  5  -2.000000  7.261216007190  0.857671318282  0.815365817123
  54  5  -2.000000  3.118154869979  3.216681805203  7.386720450159
  55  5  -2.000000  1.009925044879  4.986148702137  3.307223967519
  56  5  -2.000000  5.126849221035  7.331136359672  4.951295230238
