 # Li              Ni              Mn

          56  atoms
          5  atom types

      0.000000000000       8.206762313800  xlo xhi
      0.000000000000       8.206762313800  ylo yhi
      0.000000000000       8.206762313800  zlo zhi

Masses

           1  6.9400000              # Li
           2  58.6900000              # Ni
           3  54.9400000              # Mn
           4  16.0000000              # O1
           5  16.0000000              # O2

Atoms # charge
 
  1  1  1.000000  4.853322497845  3.478864272131  3.401188950207
  2  1  1.000000  8.188547457567  4.076874571008  0.067682451967
  3  1  1.000000  4.083178735245  0.022300907956  8.223307372749
  4  1  1.000000  0.669424182996  7.539441353381  3.474772339831
  5  1  1.000000  6.890966003965  1.321761234808  2.645736354633
  6  1  1.000000  6.137453293203  6.122921565680  6.102036546339
  7  1  1.000000  2.088515011196  2.023494627235  6.165449242362
  8  1  1.000000  2.802358375795  5.528499256091  2.764064986364
  9  2  2.000000  1.047265092945  1.026932128074  0.989468987915
  10  2  2.000000  3.098642610747  7.196517767741  5.178005505490
  11  2  2.000000  7.197953829999  5.139486729855  3.076491389673
  12  2  2.000000  5.138167185047  3.079910902053  7.204507954962
  13  3  4.000000  5.142346740939  7.226601616970  3.059660264995
  14  3  4.000000  7.197560438319  0.997191609874  7.157147742397
  15  3  4.000000  3.084200392747  3.100197706678  1.025013958564
  16  3  4.000000  1.031683365733  5.095148402320  5.205255124190
  17  3  4.000000  3.050340018387  5.140150481136  7.213082225777
  18  3  4.000000  7.168960116560  7.181413593371  0.956829726827
  19  3  4.000000  1.059122139833  3.081246850048  3.119445940488
  20  3  4.000000  5.169280854975  1.015440080148  5.144602803176
  21  3  4.000000  7.236059044574  3.045211896092  5.173595698337
  22  3  4.000000  1.000673421606  7.168175667274  7.199647673015
  23  3  4.000000  3.112322560323  1.053391764197  3.077989972405
  24  3  4.000000  5.113361941955  5.167977952478  0.990565138658
  25  4  -2.00000  7.270195598103  7.267353645664  7.251597527574
  26  4  -2.00000  5.065950012285  0.956910794241  3.181654967093
  27  4  -2.00000  0.954790277759  3.151710406667  5.068026140885
  28  4  -2.00000  3.171074796130  5.042884528509  0.943760085537
  29  4  -2.00000  1.103142965569  5.213524812128  7.133171257869
  30  4  -2.00000  3.012431097433  3.005816202899  2.987314060995
  31  4  -2.00000  5.214984200002  7.117886879165  1.106920023515
  32  4  -2.00000  7.102262875426  1.111693897473  5.225207347884
  33  5  -2.00000  5.351499928080  2.922536490205  5.166645225076
  34  5  -2.00000  6.998569851610  5.276199743022  1.053012162668
  35  5  -2.00000  2.886927817858  7.053723062704  7.183047725104
  36  5  -2.00000  1.221042874607  1.154213094508  3.035276198945
  37  5  -2.00000  5.123509310901  5.338089956079  2.924347031127
  38  5  -2.00000  1.070978924158  6.976525258107  5.278470874862
  39  5  -2.00000  7.171247851447  2.886921140985  7.068421741008
  40  5  -2.00000  3.057289363276  1.213136339177  1.165240416391
  41  5  -2.00000  2.923993671253  5.180804204256  5.346032813346
  42  5  -2.00000  5.277307016846  1.049003026553  7.016890032420
  43  5  -2.00000  7.059879623861  7.215958690609  2.864863210948
  44  5  -2.00000  1.163366798688  3.049576918712  1.231259875557
  45  5  -2.00000  4.978713171391  3.294869039088  1.029033266368
  46  5  -2.00000  7.335386597833  4.934949638216  5.112023407697
  47  5  -2.00000  0.888236039507  0.832121764308  7.200749183125
  48  5  -2.00000  3.219450369049  7.382602942550  3.135389461188
  49  5  -2.00000  7.391757220895  3.090552400965  3.244121835604
  50  5  -2.00000  0.815422807981  7.233702641675  0.873479340390
  51  5  -2.00000  4.945572447815  5.110384797043  7.321303084210
  52  5  -2.00000  3.275852544360  0.996372580074  4.994520402671
  53  5  -2.00000  7.243984294914  0.866309694595  0.821485394093
  54  5  -2.00000  3.109480033189  3.218532026489  7.374519394189
  55  5  -2.00000  1.021308250798  4.998091229442  3.300974617024
  56  5  -2.00000  5.113299095565  7.327595283444  4.945853096939
